NAME 
ROWS
 N  OBJ
 L  R0      
 L  R1      
 L  R2      
 L  R3      
 E  R4      
COLUMNS
    MARKER    'MARKER'                 'INTORG'
    I0(5)     OBJ       -230
    I0(5)     R0        -747
    I0(5)     R1        -602
    I0(5)     R2        -860
    I0(5)     R3        -781
    I0(5)     R4        922
    I1(5)     OBJ       -870
    I1(5)     R0        -816
    I1(5)     R1        -556
    I1(5)     R2        -900
    I1(5)     R3        -727
    I1(5)     R4        626
    I2(5)     OBJ       -555
    I2(5)     R0        -996
    I2(5)     R1        -10
    I2(5)     R2        -169
    I2(5)     R3        -456
    I2(5)     R4        805
    I3(5)     OBJ       -578
    I3(5)     R0        -509
    I3(5)     R1        -52
    I3(5)     R2        -415
    I3(5)     R3        -777
    I3(5)     R4        931
    I4(5)     OBJ       -995
    I4(5)     R0        -700
    I4(5)     R1        -303
    I4(5)     R2        -477
    I4(5)     R3        -235
    I4(5)     R4        677
    I5(5)     OBJ       -596
    I5(5)     R0        -238
    I5(5)     R1        -290
    I5(5)     R2        -163
    I5(5)     R3        -155
    I5(5)     R4        108
    I6(5)     OBJ       -800
    I6(5)     R0        -395
    I6(5)     R1        -195
    I6(5)     R2        -10
    I6(5)     R3        -14
    I6(5)     R4        221
    I7(5)     OBJ       -819
    I7(5)     R0        -870
    I7(5)     R1        -264
    I7(5)     R2        -277
    I7(5)     R3        -630
    I7(5)     R4        872
    I8(5)     OBJ       -630
    I8(5)     R0        -236
    I8(5)     R1        -670
    I8(5)     R2        -981
    I8(5)     R3        -25
    I8(5)     R4        372
    I9(5)     OBJ       -504
    I9(5)     R0        -292
    I9(5)     R1        -299
    I9(5)     R2        -640
    I9(5)     R3        -250
    I9(5)     R4        891
    I10(1)    R4        1
    MARKER    'MARKER'                 'INTEND'
RHS
    RHS1      R0        -3255
    RHS1      R1        -2278
    RHS1      R2        -2808
    RHS1      R3        -1786
    RHS1      R4        3212
BOUNDS
 UP BND1      I0(5)     1
 UP BND1      I1(5)     1
 UP BND1      I2(5)     1
 UP BND1      I3(5)     1
 UP BND1      I4(5)     1
 UP BND1      I5(5)     1
 UP BND1      I6(5)     1
 UP BND1      I7(5)     1
 UP BND1      I8(5)     1
 UP BND1      I9(5)     1
 LI BND1      I10(1)    0
ENDATA
